certificates/rado_a14_c278_N29.cnf
c Rad2 upper bound instance: x1 + 14*x2 - x3 = 278, interval [1,29]
p cnf 29 120
1 3 20 0
-1 -3 -20 0
1 17 21 0
-1 -17 -21 0
2 4 20 0
-2 -4 -20 0
2 18 21 0
-2 -18 -21 0
3 5 20 0
-3 -5 -20 0
3 19 21 0
-3 -19 -21 0
4 6 20 0
-4 -6 -20 0
4 20 21 0
-4 -20 -21 0
5 7 20 0
-5 -7 -20 0
5 21 0
-5 -21 0
6 8 20 0
-6 -8 -20 0
6 21 22 0
-6 -21 -22 0
7 9 20 0
-7 -9 -20 0
7 21 23 0
-7 -21 -23 0
8 10 20 0
-8 -10 -20 0
8 21 24 0
-8 -21 -24 0
9 11 20 0
-9 -11 -20 0
9 21 25 0
-9 -21 -25 0
10 12 20 0
-10 -12 -20 0
10 21 26 0
-10 -21 -26 0
11 13 20 0
-11 -13 -20 0
11 21 27 0
-11 -21 -27 0
12 14 20 0
-12 -14 -20 0
12 21 28 0
-12 -21 -28 0
1 13 19 0
-1 -13 -19 0
13 15 20 0
-13 -15 -20 0
13 21 29 0
-13 -21 -29 0
2 14 19 0
-2 -14 -19 0
14 16 20 0
-14 -16 -20 0
3 15 19 0
-3 -15 -19 0
15 17 20 0
-15 -17 -20 0
4 16 19 0
-4 -16 -19 0
16 18 20 0
-16 -18 -20 0
5 17 19 0
-5 -17 -19 0
17 19 20 0
-17 -19 -20 0
6 18 19 0
-6 -18 -19 0
18 20 0
-18 -20 0
7 19 0
-7 -19 0
19 20 21 0
-19 -20 -21 0
8 19 20 0
-8 -19 -20 0
20 22 0
-20 -22 0
9 19 21 0
-9 -19 -21 0
20 21 23 0
-20 -21 -23 0
10 19 22 0
-10 -19 -22 0
20 22 24 0
-20 -22 -24 0
11 19 23 0
-11 -19 -23 0
20 23 25 0
-20 -23 -25 0
12 19 24 0
-12 -19 -24 0
20 24 26 0
-20 -24 -26 0
13 19 25 0
-13 -19 -25 0
20 25 27 0
-20 -25 -27 0
14 19 26 0
-14 -19 -26 0
20 26 28 0
-20 -26 -28 0
1 18 27 0
-1 -18 -27 0
15 19 27 0
-15 -19 -27 0
20 27 29 0
-20 -27 -29 0
2 18 28 0
-2 -18 -28 0
16 19 28 0
-16 -19 -28 0
3 18 29 0
-3 -18 -29 0
17 19 29 0
-17 -19 -29 0
