certificates/rado_a14_c278_N29.drat
-27 -29 0
d -27 -20 -29 0
20 -29 0
-23 -29 0
21 -29 0
-29 0
-20 0
18 0
22 0
27 0
-1 0
3 0
-25 -21 0
d -9 -25 -21 0
23 0
-21 0
5 0
13 0
4 0
19 0
17 0
-7 0
-10 0
-11 0
-25 0
-15 0
-6 0
-16 0
0
